p tdp 20 67
1 2
1 9
1 10
1 17
2 3
2 5
2 6
2 7
2 17
2 19
3 4
3 5
3 8
3 10
3 11
3 12
3 14
3 18
3 19
3 20
4 5
4 6
4 19
5 8
5 11
5 14
5 15
5 17
5 20
6 7
6 9
6 13
6 14
6 15
6 16
6 17
6 18
6 20
7 8
7 9
7 10
7 12
7 13
7 14
7 15
7 16
7 17
7 20
8 10
8 19
8 20
9 12
9 16
9 20
10 11
10 14
10 15
11 12
12 15
12 17
12 20
13 16
14 20
15 18
15 20
16 17
17 18
